Route 1: 81 78 76 70 71 73 79 77 80
Route 2: 90 86 87 82 83 84 88 85 89 91 75
Route 3: 96 94 95 93 92 100 97 2 99
Route 4: 98 62 63 72 74 64 61 68 69 47
Route 5: 65 67 3 53 56 59 6 4 66 1
Route 6: 5 7 55 54 46 11 23 26 21 22
Route 7: 57 41 40 8 9 58 60 34
Route 8: 42 20 43 10 44 45 48 51 49 50
Route 9: 13 25 24 27 15 14 28 12 52
Route 10: 17 18 19 29 30 16 36
Route 11: 33 31 32 35 37 38 39
Vehicles: 11
Distance: 1856.49
